;  time  = {'z3': 600}
;  terms = 121
;  score = 600
;  stdout= {'z3': 'timeout\n'}
(set-logic QF_FP)
(declare-const x0 (_ FloatingPoint 8 24))
(declare-const x1 (_ FloatingPoint 8 24))
(declare-const x2 (_ FloatingPoint 8 24))
(declare-const x3 (_ FloatingPoint 8 24))
(declare-const x4 (_ FloatingPoint 8 24))
(declare-const x5 (_ FloatingPoint 8 24))
(declare-const x6 (_ FloatingPoint 8 24))
(declare-const x7 (_ FloatingPoint 8 24))
(declare-const x8 (_ FloatingPoint 8 24))
(declare-const x9 (_ FloatingPoint 8 24))
(assert (not (fp.isNaN x0)))
(assert (not (fp.isInfinite x0)))
(assert (not (fp.isZero x0)))
(assert (not (fp.isNaN x1)))
(assert (not (fp.isInfinite x1)))
(assert (not (fp.isZero x1)))
(assert (not (fp.isNaN x2)))
(assert (not (fp.isInfinite x2)))
(assert (not (fp.isZero x2)))
(assert (not (fp.isNaN x3)))
(assert (not (fp.isInfinite x3)))
(assert (not (fp.isZero x3)))
(assert (not (fp.isNaN x4)))
(assert (not (fp.isInfinite x4)))
(assert (not (fp.isZero x4)))
(assert (not (fp.isNaN x5)))
(assert (not (fp.isInfinite x5)))
(assert (not (fp.isZero x5)))
(assert (not (fp.isNaN x6)))
(assert (not (fp.isInfinite x6)))
(assert (not (fp.isZero x6)))
(assert (not (fp.isNaN x7)))
(assert (not (fp.isInfinite x7)))
(assert (not (fp.isZero x7)))
(assert (not (fp.isNaN x8)))
(assert (not (fp.isInfinite x8)))
(assert (not (fp.isZero x8)))
(assert (not (fp.isNaN x9)))
(assert (not (fp.isInfinite x9)))
(assert (not (fp.isZero x9)))
(assert (fp.geq (fp.div RNE (fp.max (fp.div RNE (fp.sqrt RNE (fp.div RNE x6 (fp.neg x6))) (fp.sub RNE (fp.mul RNE x3 x6) (fp.div RNE x2 x4))) (fp.max (fp.min (fp.max x6 x1) (fp.div RNE x3 (fp.div RNE x9 x3))) (fp.add RNE (fp.roundToIntegral RNE x2) (fp.min x5 x3)))) (fp.div RNE (fp.roundToIntegral RNE (fp.div RNE (fp.div RNE x9 (fp.max x5 x1)) (fp.abs x3))) (fp.mul RNE (fp.max (fp.sub RNE x9 x4) (fp.div RNE x2 (fp.add RNE x3 x0))) (fp.sqrt RNE (fp.div RNE x4 x7))))) (fp.min (fp.div RNE (fp.div RNE (fp.max (fp.div RNE x1 (fp.div RNE x5 x7)) (fp.div RNE x6 x7)) (fp.sub RNE (fp.div RNE x6 (fp.roundToIntegral RNE x1)) (fp.div RNE x3 x9))) (fp.mul RNE (fp.mul RNE (fp.div RNE (fp.abs x7) (fp.mul RNE x1 x6)) (fp.min (fp.neg x4) (fp.sqrt RNE x1))) (fp.min (fp.neg (fp.abs x2)) (fp.add RNE (fp.add RNE x5 x6) (fp.sqrt RNE x6))))) (fp.div RNE (fp.neg (fp.neg (fp.div RNE x7 x0))) (fp.div RNE (fp.div RNE (fp.abs x5) (fp.mul RNE (fp.neg x5) (fp.abs x9))) (fp.div RNE (fp.min x2 x1) (fp.div RNE x5 x2)))))))(check-sat)